NAME Original_LP
ROWS
 N  OBJ
 G  Constraint_0
 G  Constraint_1
 G  Constraint_2
 G  Constraint_3
COLUMNS
    x_0       OBJ       4.2976674441209477e+00
    x_0       Constraint_0  95
    x_0       Constraint_1  62
    x_0       Constraint_2  19
    x_0       Constraint_3  89
    x_1       OBJ       1.2331256633776433e+00
    x_1       Constraint_0  95
    x_1       Constraint_1  26
    x_1       Constraint_2  31
    x_1       Constraint_3  82
    x_2       OBJ       9.2934652090285557e+00
    x_2       Constraint_0  2
    x_2       Constraint_1  20
    x_2       Constraint_2  12
    x_2       Constraint_3  31
    x_3       OBJ       3.4096151615204686e+00
    x_3       Constraint_0  12
    x_3       Constraint_1  92
    x_3       Constraint_2  39
    x_3       Constraint_3  82
    x_4       OBJ       6.1377624004431777e+00
    x_4       Constraint_0  25
    x_4       Constraint_1  55
    x_4       Constraint_2  70
    x_4       Constraint_3  36
RHS
    RHS1      Constraint_0  67
    RHS1      Constraint_1  90
    RHS1      Constraint_2  85
    RHS1      Constraint_3  70
BOUNDS
ENDATA
